NAME : kro124pPreorder.10818.tour
COMMENT : Length = 10818
COMMENT : Found by LKH [Keld Helsgaun] Sun Apr 19 19:25:45 2020
TYPE : TOUR
DIMENSION : 100
TOUR_SECTION
1
93
67
28
58
61
87
51
25
81
69
73
50
44
54
40
64
2
82
95
13
76
33
37
5
52
78
96
39
85
68
30
48
41
100
71
3
43
46
14
29
34
83
55
12
7
9
57
86
27
20
35
62
60
77
98
91
23
45
32
15
17
11
21
59
74
72
10
84
38
24
99
36
18
79
53
16
88
94
22
70
65
26
66
4
97
75
19
56
80
31
89
42
8
92
90
49
6
63
47
-1
EOF
